c turning on binary mode checking
c parsing input formula with 259840 variables and 1039929 clauses
c finished parsing, read 28201121 bytes from proof file
c detected empty clause; start verification via backward checking
c 20110 of 1039929 clauses in core                            
c 31204 of 692852 lemmas in core using 236503 resolution steps
c 0 RAT lemmas in core; 2331 redundant literals in core lemmas
s VERIFIED
c verification time: 3.419 seconds
